100
1000
206
206
206
206
205
205
204
200
198
196
193
192
189
188
188
187
184
178
178
176
176
172
172
171
169
168
168
167
162
158
156
153
152
151
151
151
145
141
139
139
137
136
129
127
124
122
118
115
115
115
111
111
110
109
109
103
102
102
99
98
98
97
94
91
91
90
86
85
83
81
79
78
78
74
74
73
73
71
67
64
59
58
57
51
50
50
50
49
46
44
43
39
33
30
27
26
23
21
20
19
